n_machines = 10;
n_resources = 15;
n_jobs = 83;
horizon = 3700;
LB = 550;
n_jobs_per_resource = [5, 7, 2, 9, 4, 8, 7, 1, 4, 1, 5, 8, 6, 7, 9];
duration = [31, 19, 23, 94, 60, 46, 11, 72, 37, 14, 1, 4, 28, 44, 38, 70, 89, 77, 27, 17, 53, 91, 88, 28, 59, 22, 34, 2, 85, 3, 25, 86, 5, 36, 95, 10, 13, 86, 69, 24, 61, 69, 95, 92, 11, 13, 6, 41, 97, 46, 19, 26, 43, 49, 27, 9, 47, 22, 71, 63, 91, 38, 17, 11, 34, 10, 32, 45, 72, 67, 34, 43, 36, 42, 28, 14, 68, 56, 67, 85, 90, 82, 15]